c created by edge2cnf
p cnf 500 3100
-1 -2 0
-1 -3 0
-1 -4 0
-1 -5 0
-2 -3 0
-2 -4 0
-2 -5 0
-3 -4 0
-3 -5 0
-4 -5 0
1 2 3 4 5 0
-6 -7 0
-6 -8 0
-6 -9 0
-6 -10 0
-7 -8 0
-7 -9 0
-7 -10 0
-8 -9 0
-8 -10 0
-9 -10 0
6 7 8 9 10 0
-11 -12 0
-11 -13 0
-11 -14 0
-11 -15 0
-12 -13 0
-12 -14 0
-12 -15 0
-13 -14 0
-13 -15 0
-14 -15 0
11 12 13 14 15 0
-16 -17 0
-16 -18 0
-16 -19 0
-16 -20 0
-17 -18 0
-17 -19 0
-17 -20 0
-18 -19 0
-18 -20 0
-19 -20 0
16 17 18 19 20 0
-21 -22 0
-21 -23 0
-21 -24 0
-21 -25 0
-22 -23 0
-22 -24 0
-22 -25 0
-23 -24 0
-23 -25 0
-24 -25 0
21 22 23 24 25 0
-26 -27 0
-26 -28 0
-26 -29 0
-26 -30 0
-27 -28 0
-27 -29 0
-27 -30 0
-28 -29 0
-28 -30 0
-29 -30 0
26 27 28 29 30 0
-31 -32 0
-31 -33 0
-31 -34 0
-31 -35 0
-32 -33 0
-32 -34 0
-32 -35 0
-33 -34 0
-33 -35 0
-34 -35 0
31 32 33 34 35 0
-36 -37 0
-36 -38 0
-36 -39 0
-36 -40 0
-37 -38 0
-37 -39 0
-37 -40 0
-38 -39 0
-38 -40 0
-39 -40 0
36 37 38 39 40 0
-41 -42 0
-41 -43 0
-41 -44 0
-41 -45 0
-42 -43 0
-42 -44 0
-42 -45 0
-43 -44 0
-43 -45 0
-44 -45 0
41 42 43 44 45 0
-46 -47 0
-46 -48 0
-46 -49 0
-46 -50 0
-47 -48 0
-47 -49 0
-47 -50 0
-48 -49 0
-48 -50 0
-49 -50 0
46 47 48 49 50 0
-51 -52 0
-51 -53 0
-51 -54 0
-51 -55 0
-52 -53 0
-52 -54 0
-52 -55 0
-53 -54 0
-53 -55 0
-54 -55 0
51 52 53 54 55 0
-56 -57 0
-56 -58 0
-56 -59 0
-56 -60 0
-57 -58 0
-57 -59 0
-57 -60 0
-58 -59 0
-58 -60 0
-59 -60 0
56 57 58 59 60 0
-61 -62 0
-61 -63 0
-61 -64 0
-61 -65 0
-62 -63 0
-62 -64 0
-62 -65 0
-63 -64 0
-63 -65 0
-64 -65 0
61 62 63 64 65 0
-66 -67 0
-66 -68 0
-66 -69 0
-66 -70 0
-67 -68 0
-67 -69 0
-67 -70 0
-68 -69 0
-68 -70 0
-69 -70 0
66 67 68 69 70 0
-71 -72 0
-71 -73 0
-71 -74 0
-71 -75 0
-72 -73 0
-72 -74 0
-72 -75 0
-73 -74 0
-73 -75 0
-74 -75 0
71 72 73 74 75 0
-76 -77 0
-76 -78 0
-76 -79 0
-76 -80 0
-77 -78 0
-77 -79 0
-77 -80 0
-78 -79 0
-78 -80 0
-79 -80 0
76 77 78 79 80 0
-81 -82 0
-81 -83 0
-81 -84 0
-81 -85 0
-82 -83 0
-82 -84 0
-82 -85 0
-83 -84 0
-83 -85 0
-84 -85 0
81 82 83 84 85 0
-86 -87 0
-86 -88 0
-86 -89 0
-86 -90 0
-87 -88 0
-87 -89 0
-87 -90 0
-88 -89 0
-88 -90 0
-89 -90 0
86 87 88 89 90 0
-91 -92 0
-91 -93 0
-91 -94 0
-91 -95 0
-92 -93 0
-92 -94 0
-92 -95 0
-93 -94 0
-93 -95 0
-94 -95 0
91 92 93 94 95 0
-96 -97 0
-96 -98 0
-96 -99 0
-96 -100 0
-97 -98 0
-97 -99 0
-97 -100 0
-98 -99 0
-98 -100 0
-99 -100 0
96 97 98 99 100 0
-101 -102 0
-101 -103 0
-101 -104 0
-101 -105 0
-102 -103 0
-102 -104 0
-102 -105 0
-103 -104 0
-103 -105 0
-104 -105 0
101 102 103 104 105 0
-106 -107 0
-106 -108 0
-106 -109 0
-106 -110 0
-107 -108 0
-107 -109 0
-107 -110 0
-108 -109 0
-108 -110 0
-109 -110 0
106 107 108 109 110 0
-111 -112 0
-111 -113 0
-111 -114 0
-111 -115 0
-112 -113 0
-112 -114 0
-112 -115 0
-113 -114 0
-113 -115 0
-114 -115 0
111 112 113 114 115 0
-116 -117 0
-116 -118 0
-116 -119 0
-116 -120 0
-117 -118 0
-117 -119 0
-117 -120 0
-118 -119 0
-118 -120 0
-119 -120 0
116 117 118 119 120 0
-121 -122 0
-121 -123 0
-121 -124 0
-121 -125 0
-122 -123 0
-122 -124 0
-122 -125 0
-123 -124 0
-123 -125 0
-124 -125 0
121 122 123 124 125 0
-126 -127 0
-126 -128 0
-126 -129 0
-126 -130 0
-127 -128 0
-127 -129 0
-127 -130 0
-128 -129 0
-128 -130 0
-129 -130 0
126 127 128 129 130 0
-131 -132 0
-131 -133 0
-131 -134 0
-131 -135 0
-132 -133 0
-132 -134 0
-132 -135 0
-133 -134 0
-133 -135 0
-134 -135 0
131 132 133 134 135 0
-136 -137 0
-136 -138 0
-136 -139 0
-136 -140 0
-137 -138 0
-137 -139 0
-137 -140 0
-138 -139 0
-138 -140 0
-139 -140 0
136 137 138 139 140 0
-141 -142 0
-141 -143 0
-141 -144 0
-141 -145 0
-142 -143 0
-142 -144 0
-142 -145 0
-143 -144 0
-143 -145 0
-144 -145 0
141 142 143 144 145 0
-146 -147 0
-146 -148 0
-146 -149 0
-146 -150 0
-147 -148 0
-147 -149 0
-147 -150 0
-148 -149 0
-148 -150 0
-149 -150 0
146 147 148 149 150 0
-151 -152 0
-151 -153 0
-151 -154 0
-151 -155 0
-152 -153 0
-152 -154 0
-152 -155 0
-153 -154 0
-153 -155 0
-154 -155 0
151 152 153 154 155 0
-156 -157 0
-156 -158 0
-156 -159 0
-156 -160 0
-157 -158 0
-157 -159 0
-157 -160 0
-158 -159 0
-158 -160 0
-159 -160 0
156 157 158 159 160 0
-161 -162 0
-161 -163 0
-161 -164 0
-161 -165 0
-162 -163 0
-162 -164 0
-162 -165 0
-163 -164 0
-163 -165 0
-164 -165 0
161 162 163 164 165 0
-166 -167 0
-166 -168 0
-166 -169 0
-166 -170 0
-167 -168 0
-167 -169 0
-167 -170 0
-168 -169 0
-168 -170 0
-169 -170 0
166 167 168 169 170 0
-171 -172 0
-171 -173 0
-171 -174 0
-171 -175 0
-172 -173 0
-172 -174 0
-172 -175 0
-173 -174 0
-173 -175 0
-174 -175 0
171 172 173 174 175 0
-176 -177 0
-176 -178 0
-176 -179 0
-176 -180 0
-177 -178 0
-177 -179 0
-177 -180 0
-178 -179 0
-178 -180 0
-179 -180 0
176 177 178 179 180 0
-181 -182 0
-181 -183 0
-181 -184 0
-181 -185 0
-182 -183 0
-182 -184 0
-182 -185 0
-183 -184 0
-183 -185 0
-184 -185 0
181 182 183 184 185 0
-186 -187 0
-186 -188 0
-186 -189 0
-186 -190 0
-187 -188 0
-187 -189 0
-187 -190 0
-188 -189 0
-188 -190 0
-189 -190 0
186 187 188 189 190 0
-191 -192 0
-191 -193 0
-191 -194 0
-191 -195 0
-192 -193 0
-192 -194 0
-192 -195 0
-193 -194 0
-193 -195 0
-194 -195 0
191 192 193 194 195 0
-196 -197 0
-196 -198 0
-196 -199 0
-196 -200 0
-197 -198 0
-197 -199 0
-197 -200 0
-198 -199 0
-198 -200 0
-199 -200 0
196 197 198 199 200 0
-201 -202 0
-201 -203 0
-201 -204 0
-201 -205 0
-202 -203 0
-202 -204 0
-202 -205 0
-203 -204 0
-203 -205 0
-204 -205 0
201 202 203 204 205 0
-206 -207 0
-206 -208 0
-206 -209 0
-206 -210 0
-207 -208 0
-207 -209 0
-207 -210 0
-208 -209 0
-208 -210 0
-209 -210 0
206 207 208 209 210 0
-211 -212 0
-211 -213 0
-211 -214 0
-211 -215 0
-212 -213 0
-212 -214 0
-212 -215 0
-213 -214 0
-213 -215 0
-214 -215 0
211 212 213 214 215 0
-216 -217 0
-216 -218 0
-216 -219 0
-216 -220 0
-217 -218 0
-217 -219 0
-217 -220 0
-218 -219 0
-218 -220 0
-219 -220 0
216 217 218 219 220 0
-221 -222 0
-221 -223 0
-221 -224 0
-221 -225 0
-222 -223 0
-222 -224 0
-222 -225 0
-223 -224 0
-223 -225 0
-224 -225 0
221 222 223 224 225 0
-226 -227 0
-226 -228 0
-226 -229 0
-226 -230 0
-227 -228 0
-227 -229 0
-227 -230 0
-228 -229 0
-228 -230 0
-229 -230 0
226 227 228 229 230 0
-231 -232 0
-231 -233 0
-231 -234 0
-231 -235 0
-232 -233 0
-232 -234 0
-232 -235 0
-233 -234 0
-233 -235 0
-234 -235 0
231 232 233 234 235 0
-236 -237 0
-236 -238 0
-236 -239 0
-236 -240 0
-237 -238 0
-237 -239 0
-237 -240 0
-238 -239 0
-238 -240 0
-239 -240 0
236 237 238 239 240 0
-241 -242 0
-241 -243 0
-241 -244 0
-241 -245 0
-242 -243 0
-242 -244 0
-242 -245 0
-243 -244 0
-243 -245 0
-244 -245 0
241 242 243 244 245 0
-246 -247 0
-246 -248 0
-246 -249 0
-246 -250 0
-247 -248 0
-247 -249 0
-247 -250 0
-248 -249 0
-248 -250 0
-249 -250 0
246 247 248 249 250 0
-251 -252 0
-251 -253 0
-251 -254 0
-251 -255 0
-252 -253 0
-252 -254 0
-252 -255 0
-253 -254 0
-253 -255 0
-254 -255 0
251 252 253 254 255 0
-256 -257 0
-256 -258 0
-256 -259 0
-256 -260 0
-257 -258 0
-257 -259 0
-257 -260 0
-258 -259 0
-258 -260 0
-259 -260 0
256 257 258 259 260 0
-261 -262 0
-261 -263 0
-261 -264 0
-261 -265 0
-262 -263 0
-262 -264 0
-262 -265 0
-263 -264 0
-263 -265 0
-264 -265 0
261 262 263 264 265 0
-266 -267 0
-266 -268 0
-266 -269 0
-266 -270 0
-267 -268 0
-267 -269 0
-267 -270 0
-268 -269 0
-268 -270 0
-269 -270 0
266 267 268 269 270 0
-271 -272 0
-271 -273 0
-271 -274 0
-271 -275 0
-272 -273 0
-272 -274 0
-272 -275 0
-273 -274 0
-273 -275 0
-274 -275 0
271 272 273 274 275 0
-276 -277 0
-276 -278 0
-276 -279 0
-276 -280 0
-277 -278 0
-277 -279 0
-277 -280 0
-278 -279 0
-278 -280 0
-279 -280 0
276 277 278 279 280 0
-281 -282 0
-281 -283 0
-281 -284 0
-281 -285 0
-282 -283 0
-282 -284 0
-282 -285 0
-283 -284 0
-283 -285 0
-284 -285 0
281 282 283 284 285 0
-286 -287 0
-286 -288 0
-286 -289 0
-286 -290 0
-287 -288 0
-287 -289 0
-287 -290 0
-288 -289 0
-288 -290 0
-289 -290 0
286 287 288 289 290 0
-291 -292 0
-291 -293 0
-291 -294 0
-291 -295 0
-292 -293 0
-292 -294 0
-292 -295 0
-293 -294 0
-293 -295 0
-294 -295 0
291 292 293 294 295 0
-296 -297 0
-296 -298 0
-296 -299 0
-296 -300 0
-297 -298 0
-297 -299 0
-297 -300 0
-298 -299 0
-298 -300 0
-299 -300 0
296 297 298 299 300 0
-301 -302 0
-301 -303 0
-301 -304 0
-301 -305 0
-302 -303 0
-302 -304 0
-302 -305 0
-303 -304 0
-303 -305 0
-304 -305 0
301 302 303 304 305 0
-306 -307 0
-306 -308 0
-306 -309 0
-306 -310 0
-307 -308 0
-307 -309 0
-307 -310 0
-308 -309 0
-308 -310 0
-309 -310 0
306 307 308 309 310 0
-311 -312 0
-311 -313 0
-311 -314 0
-311 -315 0
-312 -313 0
-312 -314 0
-312 -315 0
-313 -314 0
-313 -315 0
-314 -315 0
311 312 313 314 315 0
-316 -317 0
-316 -318 0
-316 -319 0
-316 -320 0
-317 -318 0
-317 -319 0
-317 -320 0
-318 -319 0
-318 -320 0
-319 -320 0
316 317 318 319 320 0
-321 -322 0
-321 -323 0
-321 -324 0
-321 -325 0
-322 -323 0
-322 -324 0
-322 -325 0
-323 -324 0
-323 -325 0
-324 -325 0
321 322 323 324 325 0
-326 -327 0
-326 -328 0
-326 -329 0
-326 -330 0
-327 -328 0
-327 -329 0
-327 -330 0
-328 -329 0
-328 -330 0
-329 -330 0
326 327 328 329 330 0
-331 -332 0
-331 -333 0
-331 -334 0
-331 -335 0
-332 -333 0
-332 -334 0
-332 -335 0
-333 -334 0
-333 -335 0
-334 -335 0
331 332 333 334 335 0
-336 -337 0
-336 -338 0
-336 -339 0
-336 -340 0
-337 -338 0
-337 -339 0
-337 -340 0
-338 -339 0
-338 -340 0
-339 -340 0
336 337 338 339 340 0
-341 -342 0
-341 -343 0
-341 -344 0
-341 -345 0
-342 -343 0
-342 -344 0
-342 -345 0
-343 -344 0
-343 -345 0
-344 -345 0
341 342 343 344 345 0
-346 -347 0
-346 -348 0
-346 -349 0
-346 -350 0
-347 -348 0
-347 -349 0
-347 -350 0
-348 -349 0
-348 -350 0
-349 -350 0
346 347 348 349 350 0
-351 -352 0
-351 -353 0
-351 -354 0
-351 -355 0
-352 -353 0
-352 -354 0
-352 -355 0
-353 -354 0
-353 -355 0
-354 -355 0
351 352 353 354 355 0
-356 -357 0
-356 -358 0
-356 -359 0
-356 -360 0
-357 -358 0
-357 -359 0
-357 -360 0
-358 -359 0
-358 -360 0
-359 -360 0
356 357 358 359 360 0
-361 -362 0
-361 -363 0
-361 -364 0
-361 -365 0
-362 -363 0
-362 -364 0
-362 -365 0
-363 -364 0
-363 -365 0
-364 -365 0
361 362 363 364 365 0
-366 -367 0
-366 -368 0
-366 -369 0
-366 -370 0
-367 -368 0
-367 -369 0
-367 -370 0
-368 -369 0
-368 -370 0
-369 -370 0
366 367 368 369 370 0
-371 -372 0
-371 -373 0
-371 -374 0
-371 -375 0
-372 -373 0
-372 -374 0
-372 -375 0
-373 -374 0
-373 -375 0
-374 -375 0
371 372 373 374 375 0
-376 -377 0
-376 -378 0
-376 -379 0
-376 -380 0
-377 -378 0
-377 -379 0
-377 -380 0
-378 -379 0
-378 -380 0
-379 -380 0
376 377 378 379 380 0
-381 -382 0
-381 -383 0
-381 -384 0
-381 -385 0
-382 -383 0
-382 -384 0
-382 -385 0
-383 -384 0
-383 -385 0
-384 -385 0
381 382 383 384 385 0
-386 -387 0
-386 -388 0
-386 -389 0
-386 -390 0
-387 -388 0
-387 -389 0
-387 -390 0
-388 -389 0
-388 -390 0
-389 -390 0
386 387 388 389 390 0
-391 -392 0
-391 -393 0
-391 -394 0
-391 -395 0
-392 -393 0
-392 -394 0
-392 -395 0
-393 -394 0
-393 -395 0
-394 -395 0
391 392 393 394 395 0
-396 -397 0
-396 -398 0
-396 -399 0
-396 -400 0
-397 -398 0
-397 -399 0
-397 -400 0
-398 -399 0
-398 -400 0
-399 -400 0
396 397 398 399 400 0
-401 -402 0
-401 -403 0
-401 -404 0
-401 -405 0
-402 -403 0
-402 -404 0
-402 -405 0
-403 -404 0
-403 -405 0
-404 -405 0
401 402 403 404 405 0
-406 -407 0
-406 -408 0
-406 -409 0
-406 -410 0
-407 -408 0
-407 -409 0
-407 -410 0
-408 -409 0
-408 -410 0
-409 -410 0
406 407 408 409 410 0
-411 -412 0
-411 -413 0
-411 -414 0
-411 -415 0
-412 -413 0
-412 -414 0
-412 -415 0
-413 -414 0
-413 -415 0
-414 -415 0
411 412 413 414 415 0
-416 -417 0
-416 -418 0
-416 -419 0
-416 -420 0
-417 -418 0
-417 -419 0
-417 -420 0
-418 -419 0
-418 -420 0
-419 -420 0
416 417 418 419 420 0
-421 -422 0
-421 -423 0
-421 -424 0
-421 -425 0
-422 -423 0
-422 -424 0
-422 -425 0
-423 -424 0
-423 -425 0
-424 -425 0
421 422 423 424 425 0
-426 -427 0
-426 -428 0
-426 -429 0
-426 -430 0
-427 -428 0
-427 -429 0
-427 -430 0
-428 -429 0
-428 -430 0
-429 -430 0
426 427 428 429 430 0
-431 -432 0
-431 -433 0
-431 -434 0
-431 -435 0
-432 -433 0
-432 -434 0
-432 -435 0
-433 -434 0
-433 -435 0
-434 -435 0
431 432 433 434 435 0
-436 -437 0
-436 -438 0
-436 -439 0
-436 -440 0
-437 -438 0
-437 -439 0
-437 -440 0
-438 -439 0
-438 -440 0
-439 -440 0
436 437 438 439 440 0
-441 -442 0
-441 -443 0
-441 -444 0
-441 -445 0
-442 -443 0
-442 -444 0
-442 -445 0
-443 -444 0
-443 -445 0
-444 -445 0
441 442 443 444 445 0
-446 -447 0
-446 -448 0
-446 -449 0
-446 -450 0
-447 -448 0
-447 -449 0
-447 -450 0
-448 -449 0
-448 -450 0
-449 -450 0
446 447 448 449 450 0
-451 -452 0
-451 -453 0
-451 -454 0
-451 -455 0
-452 -453 0
-452 -454 0
-452 -455 0
-453 -454 0
-453 -455 0
-454 -455 0
451 452 453 454 455 0
-456 -457 0
-456 -458 0
-456 -459 0
-456 -460 0
-457 -458 0
-457 -459 0
-457 -460 0
-458 -459 0
-458 -460 0
-459 -460 0
456 457 458 459 460 0
-461 -462 0
-461 -463 0
-461 -464 0
-461 -465 0
-462 -463 0
-462 -464 0
-462 -465 0
-463 -464 0
-463 -465 0
-464 -465 0
461 462 463 464 465 0
-466 -467 0
-466 -468 0
-466 -469 0
-466 -470 0
-467 -468 0
-467 -469 0
-467 -470 0
-468 -469 0
-468 -470 0
-469 -470 0
466 467 468 469 470 0
-471 -472 0
-471 -473 0
-471 -474 0
-471 -475 0
-472 -473 0
-472 -474 0
-472 -475 0
-473 -474 0
-473 -475 0
-474 -475 0
471 472 473 474 475 0
-476 -477 0
-476 -478 0
-476 -479 0
-476 -480 0
-477 -478 0
-477 -479 0
-477 -480 0
-478 -479 0
-478 -480 0
-479 -480 0
476 477 478 479 480 0
-481 -482 0
-481 -483 0
-481 -484 0
-481 -485 0
-482 -483 0
-482 -484 0
-482 -485 0
-483 -484 0
-483 -485 0
-484 -485 0
481 482 483 484 485 0
-486 -487 0
-486 -488 0
-486 -489 0
-486 -490 0
-487 -488 0
-487 -489 0
-487 -490 0
-488 -489 0
-488 -490 0
-489 -490 0
486 487 488 489 490 0
-491 -492 0
-491 -493 0
-491 -494 0
-491 -495 0
-492 -493 0
-492 -494 0
-492 -495 0
-493 -494 0
-493 -495 0
-494 -495 0
491 492 493 494 495 0
-496 -497 0
-496 -498 0
-496 -499 0
-496 -500 0
-497 -498 0
-497 -499 0
-497 -500 0
-498 -499 0
-498 -500 0
-499 -500 0
496 497 498 499 500 0
-1 -16 0
-2 -17 0
-3 -18 0
-4 -19 0
-5 -20 0
-1 -21 0
-2 -22 0
-3 -23 0
-4 -24 0
-5 -25 0
-6 -21 0
-7 -22 0
-8 -23 0
-9 -24 0
-10 -25 0
-16 -36 0
-17 -37 0
-18 -38 0
-19 -39 0
-20 -40 0
-31 -51 0
-32 -52 0
-33 -53 0
-34 -54 0
-35 -55 0
-46 -56 0
-47 -57 0
-48 -58 0
-49 -59 0
-50 -60 0
-86 -101 0
-87 -102 0
-88 -103 0
-89 -104 0
-90 -105 0
-91 -101 0
-92 -102 0
-93 -103 0
-94 -104 0
-95 -105 0
-91 -106 0
-92 -107 0
-93 -108 0
-94 -109 0
-95 -110 0
-91 -111 0
-92 -112 0
-93 -113 0
-94 -114 0
-95 -115 0
-96 -101 0
-97 -102 0
-98 -103 0
-99 -104 0
-100 -105 0
-106 -121 0
-107 -122 0
-108 -123 0
-109 -124 0
-110 -125 0
-116 -136 0
-117 -137 0
-118 -138 0
-119 -139 0
-120 -140 0
-131 -146 0
-132 -147 0
-133 -148 0
-134 -149 0
-135 -150 0
-146 -156 0
-147 -157 0
-148 -158 0
-149 -159 0
-150 -160 0
-146 -166 0
-147 -167 0
-148 -168 0
-149 -169 0
-150 -170 0
-166 -181 0
-167 -182 0
-168 -183 0
-169 -184 0
-170 -185 0
-226 -241 0
-227 -242 0
-228 -243 0
-229 -244 0
-230 -245 0
-231 -236 0
-232 -237 0
-233 -238 0
-234 -239 0
-235 -240 0
-236 -251 0
-237 -252 0
-238 -253 0
-239 -254 0
-240 -255 0
-266 -281 0
-267 -282 0
-268 -283 0
-269 -284 0
-270 -285 0
-271 -291 0
-272 -292 0
-273 -293 0
-274 -294 0
-275 -295 0
-316 -331 0
-317 -332 0
-318 -333 0
-319 -334 0
-320 -335 0
-321 -336 0
-322 -337 0
-323 -338 0
-324 -339 0
-325 -340 0
-331 -351 0
-332 -352 0
-333 -353 0
-334 -354 0
-335 -355 0
-341 -351 0
-342 -352 0
-343 -353 0
-344 -354 0
-345 -355 0
-346 -361 0
-347 -362 0
-348 -363 0
-349 -364 0
-350 -365 0
-356 -366 0
-357 -367 0
-358 -368 0
-359 -369 0
-360 -370 0
-396 -411 0
-397 -412 0
-398 -413 0
-399 -414 0
-400 -415 0
-416 -426 0
-417 -427 0
-418 -428 0
-419 -429 0
-420 -430 0
-431 -441 0
-432 -442 0
-433 -443 0
-434 -444 0
-435 -445 0
-431 -451 0
-432 -452 0
-433 -453 0
-434 -454 0
-435 -455 0
-436 -441 0
-437 -442 0
-438 -443 0
-439 -444 0
-440 -445 0
-451 -466 0
-452 -467 0
-453 -468 0
-454 -469 0
-455 -470 0
-456 -461 0
-457 -462 0
-458 -463 0
-459 -464 0
-460 -465 0
-1 -491 0
-2 -492 0
-3 -493 0
-4 -494 0
-5 -495 0
-11 -491 0
-12 -492 0
-13 -493 0
-14 -494 0
-15 -495 0
-11 -496 0
-12 -497 0
-13 -498 0
-14 -499 0
-15 -500 0
-1 -496 0
-2 -497 0
-3 -498 0
-4 -499 0
-5 -500 0
-6 -491 0
-7 -492 0
-8 -493 0
-9 -494 0
-10 -495 0
-491 -496 0
-492 -497 0
-493 -498 0
-494 -499 0
-495 -500 0
-6 -486 0
-7 -487 0
-8 -488 0
-9 -489 0
-10 -490 0
-486 -491 0
-487 -492 0
-488 -493 0
-489 -494 0
-490 -495 0
-476 -496 0
-477 -497 0
-478 -498 0
-479 -499 0
-480 -500 0
-476 -491 0
-477 -492 0
-478 -493 0
-479 -494 0
-480 -495 0
-476 -486 0
-477 -487 0
-478 -488 0
-479 -489 0
-480 -490 0
-471 -491 0
-472 -492 0
-473 -493 0
-474 -494 0
-475 -495 0
-471 -476 0
-472 -477 0
-473 -478 0
-474 -479 0
-475 -480 0
-466 -486 0
-467 -487 0
-468 -488 0
-469 -489 0
-470 -490 0
-466 -481 0
-467 -482 0
-468 -483 0
-469 -484 0
-470 -485 0
-466 -476 0
-467 -477 0
-468 -478 0
-469 -479 0
-470 -480 0
-461 -481 0
-462 -482 0
-463 -483 0
-464 -484 0
-465 -485 0
-461 -476 0
-462 -477 0
-463 -478 0
-464 -479 0
-465 -480 0
-456 -476 0
-457 -477 0
-458 -478 0
-459 -479 0
-460 -480 0
-456 -471 0
-457 -472 0
-458 -473 0
-459 -474 0
-460 -475 0
-456 -466 0
-457 -467 0
-458 -468 0
-459 -469 0
-460 -470 0
-451 -471 0
-452 -472 0
-453 -473 0
-454 -474 0
-455 -475 0
-451 -461 0
-452 -462 0
-453 -463 0
-454 -464 0
-455 -465 0
-441 -461 0
-442 -462 0
-443 -463 0
-444 -464 0
-445 -465 0
-441 -451 0
-442 -452 0
-443 -453 0
-444 -454 0
-445 -455 0
-441 -446 0
-442 -447 0
-443 -448 0
-444 -449 0
-445 -450 0
-436 -451 0
-437 -452 0
-438 -453 0
-439 -454 0
-440 -455 0
-431 -446 0
-432 -447 0
-433 -448 0
-434 -449 0
-435 -450 0
-431 -436 0
-432 -437 0
-433 -438 0
-434 -439 0
-435 -440 0
-426 -441 0
-427 -442 0
-428 -443 0
-429 -444 0
-430 -445 0
-426 -436 0
-427 -437 0
-428 -438 0
-429 -439 0
-430 -440 0
-426 -431 0
-427 -432 0
-428 -433 0
-429 -434 0
-430 -435 0
-421 -441 0
-422 -442 0
-423 -443 0
-424 -444 0
-425 -445 0
-421 -436 0
-422 -437 0
-423 -438 0
-424 -439 0
-425 -440 0
-421 -431 0
-422 -432 0
-423 -433 0
-424 -434 0
-425 -435 0
-421 -426 0
-422 -427 0
-423 -428 0
-424 -429 0
-425 -430 0
-416 -431 0
-417 -432 0
-418 -433 0
-419 -434 0
-420 -435 0
-416 -421 0
-417 -422 0
-418 -423 0
-419 -424 0
-420 -425 0
-411 -431 0
-412 -432 0
-413 -433 0
-414 -434 0
-415 -435 0
-411 -426 0
-412 -427 0
-413 -428 0
-414 -429 0
-415 -430 0
-411 -421 0
-412 -422 0
-413 -423 0
-414 -424 0
-415 -425 0
-406 -416 0
-407 -417 0
-408 -418 0
-409 -419 0
-410 -420 0
-401 -416 0
-402 -417 0
-403 -418 0
-404 -419 0
-405 -420 0
-401 -406 0
-402 -407 0
-403 -408 0
-404 -409 0
-405 -410 0
-391 -411 0
-392 -412 0
-393 -413 0
-394 -414 0
-395 -415 0
-391 -406 0
-392 -407 0
-393 -408 0
-394 -409 0
-395 -410 0
-391 -396 0
-392 -397 0
-393 -398 0
-394 -399 0
-395 -400 0
-386 -406 0
-387 -407 0
-388 -408 0
-389 -409 0
-390 -410 0
-386 -401 0
-387 -402 0
-388 -403 0
-389 -404 0
-390 -405 0
-381 -396 0
-382 -397 0
-383 -398 0
-384 -399 0
-385 -400 0
-376 -396 0
-377 -397 0
-378 -398 0
-379 -399 0
-380 -400 0
-376 -381 0
-377 -382 0
-378 -383 0
-379 -384 0
-380 -385 0
-371 -381 0
-372 -382 0
-373 -383 0
-374 -384 0
-375 -385 0
-366 -381 0
-367 -382 0
-368 -383 0
-369 -384 0
-370 -385 0
-366 -371 0
-367 -372 0
-368 -373 0
-369 -374 0
-370 -375 0
-361 -376 0
-362 -377 0
-363 -378 0
-364 -379 0
-365 -380 0
-361 -371 0
-362 -372 0
-363 -373 0
-364 -374 0
-365 -375 0
-361 -366 0
-362 -367 0
-363 -368 0
-364 -369 0
-365 -370 0
-356 -371 0
-357 -372 0
-358 -373 0
-359 -374 0
-360 -375 0
-356 -361 0
-357 -362 0
-358 -363 0
-359 -364 0
-360 -365 0
-351 -366 0
-352 -367 0
-353 -368 0
-354 -369 0
-355 -370 0
-351 -361 0
-352 -362 0
-353 -363 0
-354 -364 0
-355 -365 0
-346 -356 0
-347 -357 0
-348 -358 0
-349 -359 0
-350 -360 0
-341 -361 0
-342 -362 0
-343 -363 0
-344 -364 0
-345 -365 0
-336 -351 0
-337 -352 0
-338 -353 0
-339 -354 0
-340 -355 0
-336 -346 0
-337 -347 0
-338 -348 0
-339 -349 0
-340 -350 0
-331 -346 0
-332 -347 0
-333 -348 0
-334 -349 0
-335 -350 0
-331 -341 0
-332 -342 0
-333 -343 0
-334 -344 0
-335 -345 0
-326 -336 0
-327 -337 0
-328 -338 0
-329 -339 0
-330 -340 0
-326 -331 0
-327 -332 0
-328 -333 0
-329 -334 0
-330 -335 0
-321 -341 0
-322 -342 0
-323 -343 0
-324 -344 0
-325 -345 0
-321 -331 0
-322 -332 0
-323 -333 0
-324 -334 0
-325 -335 0
-316 -336 0
-317 -337 0
-318 -338 0
-319 -339 0
-320 -340 0
-316 -326 0
-317 -327 0
-318 -328 0
-319 -329 0
-320 -330 0
-316 -321 0
-317 -322 0
-318 -323 0
-319 -324 0
-320 -325 0
-311 -326 0
-312 -327 0
-313 -328 0
-314 -329 0
-315 -330 0
-311 -321 0
-312 -322 0
-313 -323 0
-314 -324 0
-315 -325 0
-311 -316 0
-312 -317 0
-313 -318 0
-314 -319 0
-315 -320 0
-306 -326 0
-307 -327 0
-308 -328 0
-309 -329 0
-310 -330 0
-306 -316 0
-307 -317 0
-308 -318 0
-309 -319 0
-310 -320 0
-301 -316 0
-302 -317 0
-303 -318 0
-304 -319 0
-305 -320 0
-301 -311 0
-302 -312 0
-303 -313 0
-304 -314 0
-305 -315 0
-296 -316 0
-297 -317 0
-298 -318 0
-299 -319 0
-300 -320 0
-296 -306 0
-297 -307 0
-298 -308 0
-299 -309 0
-300 -310 0
-291 -306 0
-292 -307 0
-293 -308 0
-294 -309 0
-295 -310 0
-291 -301 0
-292 -302 0
-293 -303 0
-294 -304 0
-295 -305 0
-286 -306 0
-287 -307 0
-288 -308 0
-289 -309 0
-290 -310 0
-286 -296 0
-287 -297 0
-288 -298 0
-289 -299 0
-290 -300 0
-286 -291 0
-287 -292 0
-288 -293 0
-289 -294 0
-290 -295 0
-281 -301 0
-282 -302 0
-283 -303 0
-284 -304 0
-285 -305 0
-281 -296 0
-282 -297 0
-283 -298 0
-284 -299 0
-285 -300 0
-281 -291 0
-282 -292 0
-283 -293 0
-284 -294 0
-285 -295 0
-276 -296 0
-277 -297 0
-278 -298 0
-279 -299 0
-280 -300 0
-276 -291 0
-277 -292 0
-278 -293 0
-279 -294 0
-280 -295 0
-271 -281 0
-272 -282 0
-273 -283 0
-274 -284 0
-275 -285 0
-271 -276 0
-272 -277 0
-273 -278 0
-274 -279 0
-275 -280 0
-266 -271 0
-267 -272 0
-268 -273 0
-269 -274 0
-270 -275 0
-261 -276 0
-262 -277 0
-263 -278 0
-264 -279 0
-265 -280 0
-261 -271 0
-262 -272 0
-263 -273 0
-264 -274 0
-265 -275 0
-261 -266 0
-262 -267 0
-263 -268 0
-264 -269 0
-265 -270 0
-256 -271 0
-257 -272 0
-258 -273 0
-259 -274 0
-260 -275 0
-256 -266 0
-257 -267 0
-258 -268 0
-259 -269 0
-260 -270 0
-256 -261 0
-257 -262 0
-258 -263 0
-259 -264 0
-260 -265 0
-251 -266 0
-252 -267 0
-253 -268 0
-254 -269 0
-255 -270 0
-246 -256 0
-247 -257 0
-248 -258 0
-249 -259 0
-250 -260 0
-246 -251 0
-247 -252 0
-248 -253 0
-249 -254 0
-250 -255 0
-241 -256 0
-242 -257 0
-243 -258 0
-244 -259 0
-245 -260 0
-231 -246 0
-232 -247 0
-233 -248 0
-234 -249 0
-235 -250 0
-231 -241 0
-232 -242 0
-233 -243 0
-234 -244 0
-235 -245 0
-226 -246 0
-227 -247 0
-228 -248 0
-229 -249 0
-230 -250 0
-221 -231 0
-222 -232 0
-223 -233 0
-224 -234 0
-225 -235 0
-221 -226 0
-222 -227 0
-223 -228 0
-224 -229 0
-225 -230 0
-216 -231 0
-217 -232 0
-218 -233 0
-219 -234 0
-220 -235 0
-211 -226 0
-212 -227 0
-213 -228 0
-214 -229 0
-215 -230 0
-211 -216 0
-212 -217 0
-213 -218 0
-214 -219 0
-215 -220 0
-206 -221 0
-207 -222 0
-208 -223 0
-209 -224 0
-210 -225 0
-206 -216 0
-207 -217 0
-208 -218 0
-209 -219 0
-210 -220 0
-206 -211 0
-207 -212 0
-208 -213 0
-209 -214 0
-210 -215 0
-201 -221 0
-202 -222 0
-203 -223 0
-204 -224 0
-205 -225 0
-201 -206 0
-202 -207 0
-203 -208 0
-204 -209 0
-205 -210 0
-196 -216 0
-197 -217 0
-198 -218 0
-199 -219 0
-200 -220 0
-191 -211 0
-192 -212 0
-193 -213 0
-194 -214 0
-195 -215 0
-191 -201 0
-192 -202 0
-193 -203 0
-194 -204 0
-195 -205 0
-191 -196 0
-192 -197 0
-193 -198 0
-194 -199 0
-195 -200 0
-186 -201 0
-187 -202 0
-188 -203 0
-189 -204 0
-190 -205 0
-186 -191 0
-187 -192 0
-188 -193 0
-189 -194 0
-190 -195 0
-181 -196 0
-182 -197 0
-183 -198 0
-184 -199 0
-185 -200 0
-181 -186 0
-182 -187 0
-183 -188 0
-184 -189 0
-185 -190 0
-176 -186 0
-177 -187 0
-178 -188 0
-179 -189 0
-180 -190 0
-171 -186 0
-172 -187 0
-173 -188 0
-174 -189 0
-175 -190 0
-166 -186 0
-167 -187 0
-168 -188 0
-169 -189 0
-170 -190 0
-166 -176 0
-167 -177 0
-168 -178 0
-169 -179 0
-170 -180 0
-166 -171 0
-167 -172 0
-168 -173 0
-169 -174 0
-170 -175 0
-161 -181 0
-162 -182 0
-163 -183 0
-164 -184 0
-165 -185 0
-161 -176 0
-162 -177 0
-163 -178 0
-164 -179 0
-165 -180 0
-156 -176 0
-157 -177 0
-158 -178 0
-159 -179 0
-160 -180 0
-156 -171 0
-157 -172 0
-158 -173 0
-159 -174 0
-160 -175 0
-156 -166 0
-157 -167 0
-158 -168 0
-159 -169 0
-160 -170 0
-151 -166 0
-152 -167 0
-153 -168 0
-154 -169 0
-155 -170 0
-146 -161 0
-147 -162 0
-148 -163 0
-149 -164 0
-150 -165 0
-146 -151 0
-147 -152 0
-148 -153 0
-149 -154 0
-150 -155 0
-141 -161 0
-142 -162 0
-143 -163 0
-144 -164 0
-145 -165 0
-141 -156 0
-142 -157 0
-143 -158 0
-144 -159 0
-145 -160 0
-136 -146 0
-137 -147 0
-138 -148 0
-139 -149 0
-140 -150 0
-136 -141 0
-137 -142 0
-138 -143 0
-139 -144 0
-140 -145 0
-131 -141 0
-132 -142 0
-133 -143 0
-134 -144 0
-135 -145 0
-126 -136 0
-127 -137 0
-128 -138 0
-129 -139 0
-130 -140 0
-126 -131 0
-127 -132 0
-128 -133 0
-129 -134 0
-130 -135 0
-121 -131 0
-122 -132 0
-123 -133 0
-124 -134 0
-125 -135 0
-121 -126 0
-122 -127 0
-123 -128 0
-124 -129 0
-125 -130 0
-116 -131 0
-117 -132 0
-118 -133 0
-119 -134 0
-120 -135 0
-116 -126 0
-117 -127 0
-118 -128 0
-119 -129 0
-120 -130 0
-111 -131 0
-112 -132 0
-113 -133 0
-114 -134 0
-115 -135 0
-111 -126 0
-112 -127 0
-113 -128 0
-114 -129 0
-115 -130 0
-111 -121 0
-112 -122 0
-113 -123 0
-114 -124 0
-115 -125 0
-106 -111 0
-107 -112 0
-108 -113 0
-109 -114 0
-110 -115 0
-101 -111 0
-102 -112 0
-103 -113 0
-104 -114 0
-105 -115 0
-101 -106 0
-102 -107 0
-103 -108 0
-104 -109 0
-105 -110 0
-96 -111 0
-97 -112 0
-98 -113 0
-99 -114 0
-100 -115 0
-91 -96 0
-92 -97 0
-93 -98 0
-94 -99 0
-95 -100 0
-81 -101 0
-82 -102 0
-83 -103 0
-84 -104 0
-85 -105 0
-81 -91 0
-82 -92 0
-83 -93 0
-84 -94 0
-85 -95 0
-81 -86 0
-82 -87 0
-83 -88 0
-84 -89 0
-85 -90 0
-76 -96 0
-77 -97 0
-78 -98 0
-79 -99 0
-80 -100 0
-76 -91 0
-77 -92 0
-78 -93 0
-79 -94 0
-80 -95 0
-71 -86 0
-72 -87 0
-73 -88 0
-74 -89 0
-75 -90 0
-66 -86 0
-67 -87 0
-68 -88 0
-69 -89 0
-70 -90 0
-66 -71 0
-67 -72 0
-68 -73 0
-69 -74 0
-70 -75 0
-61 -76 0
-62 -77 0
-63 -78 0
-64 -79 0
-65 -80 0
-56 -66 0
-57 -67 0
-58 -68 0
-59 -69 0
-60 -70 0
-56 -61 0
-57 -62 0
-58 -63 0
-59 -64 0
-60 -65 0
-51 -71 0
-52 -72 0
-53 -73 0
-54 -74 0
-55 -75 0
-51 -66 0
-52 -67 0
-53 -68 0
-54 -69 0
-55 -70 0
-51 -61 0
-52 -62 0
-53 -63 0
-54 -64 0
-55 -65 0
-51 -56 0
-52 -57 0
-53 -58 0
-54 -59 0
-55 -60 0
-41 -61 0
-42 -62 0
-43 -63 0
-44 -64 0
-45 -65 0
-41 -46 0
-42 -47 0
-43 -48 0
-44 -49 0
-45 -50 0
-31 -46 0
-32 -47 0
-33 -48 0
-34 -49 0
-35 -50 0
-31 -41 0
-32 -42 0
-33 -43 0
-34 -44 0
-35 -45 0
-26 -46 0
-27 -47 0
-28 -48 0
-29 -49 0
-30 -50 0
-26 -31 0
-27 -32 0
-28 -33 0
-29 -34 0
-30 -35 0
-11 -26 0
-12 -27 0
-13 -28 0
-14 -29 0
-15 -30 0
-11 -16 0
-12 -17 0
-13 -18 0
-14 -19 0
-15 -20 0
-6 -11 0
-7 -12 0
-8 -13 0
-9 -14 0
-10 -15 0
-191 -491 0
-192 -492 0
-193 -493 0
-194 -494 0
-195 -495 0
-346 -456 0
-347 -457 0
-348 -458 0
-349 -459 0
-350 -460 0
-356 -401 0
-357 -402 0
-358 -403 0
-359 -404 0
-360 -405 0
-181 -391 0
-182 -392 0
-183 -393 0
-184 -394 0
-185 -395 0
-146 -471 0
-147 -472 0
-148 -473 0
-149 -474 0
-150 -475 0
-151 -176 0
-152 -177 0
-153 -178 0
-154 -179 0
-155 -180 0
-311 -356 0
-312 -357 0
-313 -358 0
-314 -359 0
-315 -360 0
-91 -486 0
-92 -487 0
-93 -488 0
-94 -489 0
-95 -490 0
-146 -276 0
-147 -277 0
-148 -278 0
-149 -279 0
-150 -280 0
-151 -256 0
-152 -257 0
-153 -258 0
-154 -259 0
-155 -260 0
-416 -471 0
-417 -472 0
-418 -473 0
-419 -474 0
-420 -475 0
-16 -461 0
-17 -462 0
-18 -463 0
-19 -464 0
-20 -465 0
-6 -341 0
-7 -342 0
-8 -343 0
-9 -344 0
-10 -345 0
-171 -291 0
-172 -292 0
-173 -293 0
-174 -294 0
-175 -295 0
-356 -456 0
-357 -457 0
-358 -458 0
-359 -459 0
-360 -460 0
-36 -411 0
-37 -412 0
-38 -413 0
-39 -414 0
-40 -415 0
-361 -446 0
-362 -447 0
-363 -448 0
-364 -449 0
-365 -450 0
-81 -466 0
-82 -467 0
-83 -468 0
-84 -469 0
-85 -470 0
-156 -326 0
-157 -327 0
-158 -328 0
-159 -329 0
-160 -330 0
-316 -341 0
-317 -342 0
-318 -343 0
-319 -344 0
-320 -345 0
-36 -361 0
-37 -362 0
-38 -363 0
-39 -364 0
-40 -365 0
-6 -106 0
-7 -107 0
-8 -108 0
-9 -109 0
-10 -110 0
-91 -496 0
-92 -497 0
-93 -498 0
-94 -499 0
-95 -500 0
-261 -291 0
-262 -292 0
-263 -293 0
-264 -294 0
-265 -295 0
-231 -421 0
-232 -422 0
-233 -423 0
-234 -424 0
-235 -425 0
-91 -136 0
-92 -137 0
-93 -138 0
-94 -139 0
-95 -140 0
-336 -366 0
-337 -367 0
-338 -368 0
-339 -369 0
-340 -370 0
-111 -266 0
-112 -267 0
-113 -268 0
-114 -269 0
-115 -270 0
-201 -456 0
-202 -457 0
-203 -458 0
-204 -459 0
-205 -460 0
-346 -421 0
-347 -422 0
-348 -423 0
-349 -424 0
-350 -425 0
-271 -341 0
-272 -342 0
-273 -343 0
-274 -344 0
-275 -345 0
-11 -276 0
-12 -277 0
-13 -278 0
-14 -279 0
-15 -280 0
-131 -161 0
-132 -162 0
-133 -163 0
-134 -164 0
-135 -165 0
-96 -466 0
-97 -467 0
-98 -468 0
-99 -469 0
-100 -470 0
-56 -351 0
-57 -352 0
-58 -353 0
-59 -354 0
-60 -355 0
-141 -166 0
-142 -167 0
-143 -168 0
-144 -169 0
-145 -170 0
-96 -326 0
-97 -327 0
-98 -328 0
-99 -329 0
-100 -330 0
-256 -341 0
-257 -342 0
-258 -343 0
-259 -344 0
-260 -345 0
-126 -376 0
-127 -377 0
-128 -378 0
-129 -379 0
-130 -380 0
-216 -281 0
-217 -282 0
-218 -283 0
-219 -284 0
-220 -285 0
-351 -461 0
-352 -462 0
-353 -463 0
-354 -464 0
-355 -465 0
-36 -171 0
-37 -172 0
-38 -173 0
-39 -174 0
-40 -175 0
-91 -436 0
-92 -437 0
-93 -438 0
-94 -439 0
-95 -440 0
-36 -76 0
-37 -77 0
-38 -78 0
-39 -79 0
-40 -80 0
-401 -476 0
-402 -477 0
-403 -478 0
-404 -479 0
-405 -480 0
-466 -491 0
-467 -492 0
-468 -493 0
-469 -494 0
-470 -495 0
-151 -461 0
-152 -462 0
-153 -463 0
-154 -464 0
-155 -465 0
-146 -486 0
-147 -487 0
-148 -488 0
-149 -489 0
-150 -490 0
-116 -476 0
-117 -477 0
-118 -478 0
-119 -479 0
-120 -480 0
-76 -141 0
-77 -142 0
-78 -143 0
-79 -144 0
-80 -145 0
-366 -461 0
-367 -462 0
-368 -463 0
-369 -464 0
-370 -465 0
-91 -161 0
-92 -162 0
-93 -163 0
-94 -164 0
-95 -165 0
-66 -106 0
-67 -107 0
-68 -108 0
-69 -109 0
-70 -110 0
-91 -201 0
-92 -202 0
-93 -203 0
-94 -204 0
-95 -205 0
-51 -341 0
-52 -342 0
-53 -343 0
-54 -344 0
-55 -345 0
-36 -341 0
-37 -342 0
-38 -343 0
-39 -344 0
-40 -345 0
-216 -331 0
-217 -332 0
-218 -333 0
-219 -334 0
-220 -335 0
-31 -91 0
-32 -92 0
-33 -93 0
-34 -94 0
-35 -95 0
-101 -266 0
-102 -267 0
-103 -268 0
-104 -269 0
-105 -270 0
-71 -196 0
-72 -197 0
-73 -198 0
-74 -199 0
-75 -200 0
-41 -421 0
-42 -422 0
-43 -423 0
-44 -424 0
-45 -425 0
-156 -191 0
-157 -192 0
-158 -193 0
-159 -194 0
-160 -195 0
-16 -61 0
-17 -62 0
-18 -63 0
-19 -64 0
-20 -65 0
-361 -471 0
-362 -472 0
-363 -473 0
-364 -474 0
-365 -475 0
-116 -141 0
-117 -142 0
-118 -143 0
-119 -144 0
-120 -145 0
-266 -441 0
-267 -442 0
-268 -443 0
-269 -444 0
-270 -445 0
-86 -281 0
-87 -282 0
-88 -283 0
-89 -284 0
-90 -285 0
-276 -466 0
-277 -467 0
-278 -468 0
-279 -469 0
-280 -470 0
-131 -381 0
-132 -382 0
-133 -383 0
-134 -384 0
-135 -385 0
-76 -101 0
-77 -102 0
-78 -103 0
-79 -104 0
-80 -105 0
-136 -306 0
-137 -307 0
-138 -308 0
-139 -309 0
-140 -310 0
-41 -341 0
-42 -342 0
-43 -343 0
-44 -344 0
-45 -345 0
-171 -226 0
-172 -227 0
-173 -228 0
-174 -229 0
-175 -230 0
-26 -126 0
-27 -127 0
-28 -128 0
-29 -129 0
-30 -130 0
-381 -406 0
-382 -407 0
-383 -408 0
-384 -409 0
-385 -410 0
-256 -291 0
-257 -292 0
-258 -293 0
-259 -294 0
-260 -295 0
-126 -391 0
-127 -392 0
-128 -393 0
-129 -394 0
-130 -395 0
-31 -391 0
-32 -392 0
-33 -393 0
-34 -394 0
-35 -395 0
-111 -201 0
-112 -202 0
-113 -203 0
-114 -204 0
-115 -205 0
-116 -221 0
-117 -222 0
-118 -223 0
-119 -224 0
-120 -225 0
-11 -201 0
-12 -202 0
-13 -203 0
-14 -204 0
-15 -205 0
-186 -401 0
-187 -402 0
-188 -403 0
-189 -404 0
-190 -405 0
-196 -396 0
-197 -397 0
-198 -398 0
-199 -399 0
-200 -400 0
-311 -491 0
-312 -492 0
-313 -493 0
-314 -494 0
-315 -495 0
-241 -396 0
-242 -397 0
-243 -398 0
-244 -399 0
-245 -400 0
-26 -216 0
-27 -217 0
-28 -218 0
-29 -219 0
-30 -220 0
-111 -486 0
-112 -487 0
-113 -488 0
-114 -489 0
-115 -490 0
-86 -311 0
-87 -312 0
-88 -313 0
-89 -314 0
-90 -315 0
-106 -471 0
-107 -472 0
-108 -473 0
-109 -474 0
-110 -475 0
-6 -206 0
-7 -207 0
-8 -208 0
-9 -209 0
-10 -210 0
-161 -261 0
-162 -262 0
-163 -263 0
-164 -264 0
-165 -265 0
-301 -381 0
-302 -382 0
-303 -383 0
-304 -384 0
-305 -385 0
-81 -456 0
-82 -457 0
-83 -458 0
-84 -459 0
-85 -460 0
-456 -496 0
-457 -497 0
-458 -498 0
-459 -499 0
-460 -500 0
-106 -271 0
-107 -272 0
-108 -273 0
-109 -274 0
-110 -275 0
-211 -291 0
-212 -292 0
-213 -293 0
-214 -294 0
-215 -295 0
-176 -481 0
-177 -482 0
-178 -483 0
-179 -484 0
-180 -485 0
-176 -436 0
-177 -437 0
-178 -438 0
-179 -439 0
-180 -440 0
-6 -406 0
-7 -407 0
-8 -408 0
-9 -409 0
-10 -410 0
-296 -336 0
-297 -337 0
-298 -338 0
-299 -339 0
-300 -340 0
-251 -296 0
-252 -297 0
-253 -298 0
-254 -299 0
-255 -300 0
-11 -101 0
-12 -102 0
-13 -103 0
-14 -104 0
-15 -105 0
-61 -471 0
-62 -472 0
-63 -473 0
-64 -474 0
-65 -475 0
-86 -341 0
-87 -342 0
-88 -343 0
-89 -344 0
-90 -345 0
-226 -426 0
-227 -427 0
-228 -428 0
-229 -429 0
-230 -430 0
-21 -416 0
-22 -417 0
-23 -418 0
-24 -419 0
-25 -420 0
-261 -301 0
-262 -302 0
-263 -303 0
-264 -304 0
-265 -305 0
-196 -481 0
-197 -482 0
-198 -483 0
-199 -484 0
-200 -485 0
-16 -201 0
-17 -202 0
-18 -203 0
-19 -204 0
-20 -205 0
-346 -436 0
-347 -437 0
-348 -438 0
-349 -439 0
-350 -440 0
-181 -231 0
-182 -232 0
-183 -233 0
-184 -234 0
-185 -235 0
-261 -331 0
-262 -332 0
-263 -333 0
-264 -334 0
-265 -335 0
-236 -371 0
-237 -372 0
-238 -373 0
-239 -374 0
-240 -375 0
-306 -486 0
-307 -487 0
-308 -488 0
-309 -489 0
-310 -490 0
-171 -311 0
-172 -312 0
-173 -313 0
-174 -314 0
-175 -315 0
-76 -441 0
-77 -442 0
-78 -443 0
-79 -444 0
-80 -445 0
-181 -281 0
-182 -282 0
-183 -283 0
-184 -284 0
-185 -285 0
-411 -446 0
-412 -447 0
-413 -448 0
-414 -449 0
-415 -450 0
-156 -351 0
-157 -352 0
-158 -353 0
-159 -354 0
-160 -355 0
-1 -341 0
-2 -342 0
-3 -343 0
-4 -344 0
-5 -345 0
-141 -321 0
-142 -322 0
-143 -323 0
-144 -324 0
-145 -325 0
-31 -421 0
-32 -422 0
-33 -423 0
-34 -424 0
-35 -425 0
-141 -301 0
-142 -302 0
-143 -303 0
-144 -304 0
-145 -305 0
-101 -281 0
-102 -282 0
-103 -283 0
-104 -284 0
-105 -285 0
-46 -411 0
-47 -412 0
-48 -413 0
-49 -414 0
-50 -415 0
-26 -66 0
-27 -67 0
-28 -68 0
-29 -69 0
-30 -70 0
-91 -131 0
-92 -132 0
-93 -133 0
-94 -134 0
-95 -135 0
-346 -471 0
-347 -472 0
-348 -473 0
-349 -474 0
-350 -475 0
-211 -381 0
-212 -382 0
-213 -383 0
-214 -384 0
-215 -385 0
-221 -271 0
-222 -272 0
-223 -273 0
-224 -274 0
-225 -275 0
-31 -146 0
-32 -147 0
-33 -148 0
-34 -149 0
-35 -150 0
-121 -461 0
-122 -462 0
-123 -463 0
-124 -464 0
-125 -465 0
-126 -356 0
-127 -357 0
-128 -358 0
-129 -359 0
-130 -360 0
-96 -461 0
-97 -462 0
-98 -463 0
-99 -464 0
-100 -465 0
-216 -346 0
-217 -347 0
-218 -348 0
-219 -349 0
-220 -350 0
-11 -151 0
-12 -152 0
-13 -153 0
-14 -154 0
-15 -155 0
-1 -186 0
-2 -187 0
-3 -188 0
-4 -189 0
-5 -190 0
-21 -196 0
-22 -197 0
-23 -198 0
-24 -199 0
-25 -200 0
-151 -281 0
-152 -282 0
-153 -283 0
-154 -284 0
-155 -285 0
-141 -206 0
-142 -207 0
-143 -208 0
-144 -209 0
-145 -210 0
-381 -456 0
-382 -457 0
-383 -458 0
-384 -459 0
-385 -460 0
-306 -381 0
-307 -382 0
-308 -383 0
-309 -384 0
-310 -385 0
-46 -336 0
-47 -337 0
-48 -338 0
-49 -339 0
-50 -340 0
-51 -416 0
-52 -417 0
-53 -418 0
-54 -419 0
-55 -420 0
-36 -191 0
-37 -192 0
-38 -193 0
-39 -194 0
-40 -195 0
-211 -266 0
-212 -267 0
-213 -268 0
-214 -269 0
-215 -270 0
-86 -351 0
-87 -352 0
-88 -353 0
-89 -354 0
-90 -355 0
-36 -491 0
-37 -492 0
-38 -493 0
-39 -494 0
-40 -495 0
-76 -361 0
-77 -362 0
-78 -363 0
-79 -364 0
-80 -365 0
-91 -426 0
-92 -427 0
-93 -428 0
-94 -429 0
-95 -430 0
-66 -256 0
-67 -257 0
-68 -258 0
-69 -259 0
-70 -260 0
-166 -251 0
-167 -252 0
-168 -253 0
-169 -254 0
-170 -255 0
-266 -411 0
-267 -412 0
-268 -413 0
-269 -414 0
-270 -415 0
-281 -351 0
-282 -352 0
-283 -353 0
-284 -354 0
-285 -355 0
-21 -286 0
-22 -287 0
-23 -288 0
-24 -289 0
-25 -290 0
-76 -201 0
-77 -202 0
-78 -203 0
-79 -204 0
-80 -205 0
-86 -386 0
-87 -387 0
-88 -388 0
-89 -389 0
-90 -390 0
-416 -461 0
-417 -462 0
-418 -463 0
-419 -464 0
-420 -465 0
-56 -326 0
-57 -327 0
-58 -328 0
-59 -329 0
-60 -330 0
-121 -381 0
-122 -382 0
-123 -383 0
-124 -384 0
-125 -385 0
-396 -476 0
-397 -477 0
-398 -478 0
-399 -479 0
-400 -480 0
-31 -136 0
-32 -137 0
-33 -138 0
-34 -139 0
-35 -140 0
-56 -241 0
-57 -242 0
-58 -243 0
-59 -244 0
-60 -245 0
-341 -481 0
-342 -482 0
-343 -483 0
-344 -484 0
-345 -485 0
-16 -251 0
-17 -252 0
-18 -253 0
-19 -254 0
-20 -255 0
-141 -386 0
-142 -387 0
-143 -388 0
-144 -389 0
-145 -390 0
-6 -66 0
-7 -67 0
-8 -68 0
-9 -69 0
-10 -70 0
-191 -226 0
-192 -227 0
-193 -228 0
-194 -229 0
-195 -230 0
-11 -351 0
-12 -352 0
-13 -353 0
-14 -354 0
-15 -355 0
-221 -441 0
-222 -442 0
-223 -443 0
-224 -444 0
-225 -445 0
-186 -246 0
-187 -247 0
-188 -248 0
-189 -249 0
-190 -250 0
-106 -306 0
-107 -307 0
-108 -308 0
-109 -309 0
-110 -310 0
-271 -401 0
-272 -402 0
-273 -403 0
-274 -404 0
-275 -405 0
-21 -476 0
-22 -477 0
-23 -478 0
-24 -479 0
-25 -480 0
-101 -276 0
-102 -277 0
-103 -278 0
-104 -279 0
-105 -280 0
-116 -331 0
-117 -332 0
-118 -333 0
-119 -334 0
-120 -335 0
-81 -126 0
-82 -127 0
-83 -128 0
-84 -129 0
-85 -130 0
-31 -491 0
-32 -492 0
-33 -493 0
-34 -494 0
-35 -495 0
-251 -496 0
-252 -497 0
-253 -498 0
-254 -499 0
-255 -500 0
-251 -436 0
-252 -437 0
-253 -438 0
-254 -439 0
-255 -440 0
-196 -491 0
-197 -492 0
-198 -493 0
-199 -494 0
-200 -495 0
